 vasp.6.4.2 20Jul23 (build Oct 18 2023 12:49:41) complex
 executed on             LinuxGNU date 2025.06.06  15:02:16

 INCAR:
   SYSTEM = fcc silicon
   ISYM = 0
   EDIFF = 1e-6
   IBRION = 2
   NSW = 300
   ISIF = 2
   EDIFFG = -0.025
   ML_LMLFF = T
   ML_ISTART = 2
   RANDOM_SEED = 688344966                0                0
   NCORE = 1
   NSIM = 4

 POTCAR:    PAW_PBE C 08Apr2002
 POTCAR:    PAW_PBE C 08Apr2002
   VRHFIN =C: s2p2

   TITEL  = PAW_PBE C 08Apr2002
   POMASS =   12.011; ZVAL   =    4.000    mass and valenz
   ENMAX  =  400.000; ENMIN  =  300.000 eV

  PAW_PBE C 08Apr2002                   :

 POSCAR:  C
  positions in cartesian coordinates
 exchange correlation table for  LEXCH =        8
   RHO(1)=    0.500       N(1)  =     2000
   RHO(2)=  100.500       N(2)  =     4000

 ion  position               nearest neighbor table
   1  0.000  0.000  0.191-   4 1.55  14 1.55  10 1.55   5 1.55
   2  0.250  0.250  0.069-   4 1.55   9 1.55
   3  0.250  0.329  0.314-   5 1.60  15 1.60   8 1.73
   4  0.250  0.000  0.130-   1 1.55   2 1.55   7 1.55  11 1.55
   5  0.000  0.250  0.252-   1 1.55   6 1.55   3 1.60  13 1.60
   6  0.000  0.500  0.191-   9 1.55  19 1.55  10 1.55   5 1.55
   7  0.250  0.750  0.069-   4 1.55   9 1.55
   8  0.250  0.671  0.314-  10 1.60  20 1.60   3 1.73
   9  0.250  0.500  0.130-   2 1.55   6 1.55   7 1.55  16 1.55
  10  0.000  0.750  0.252-   1 1.55   6 1.55   8 1.60  18 1.60
  11  0.500  0.000  0.191-   4 1.55  14 1.55  15 1.55  20 1.55
  12  0.750  0.250  0.069-  14 1.55  19 1.55
  13  0.750  0.329  0.314-   5 1.60  15 1.60  18 1.73
  14  0.750  0.000  0.130-   1 1.55  11 1.55  12 1.55  17 1.55
  15  0.500  0.250  0.252-  11 1.55  16 1.55  13 1.60   3 1.60
  16  0.500  0.500  0.191-   9 1.55  19 1.55  15 1.55  20 1.55
  17  0.750  0.750  0.069-  14 1.55  19 1.55
  18  0.750  0.671  0.314-  10 1.60  20 1.60  13 1.73
  19  0.750  0.500  0.130-   6 1.55  12 1.55  16 1.55  17 1.55
  20  0.500  0.750  0.252-  11 1.55  16 1.55   8 1.60  18 1.60

IMPORTANT INFORMATION: All symmetrisations will be switched off!
NOSYMM: (Re-)initialisation of all symmetry stuff for point group C_1.

                                     Primitive cell

  volume of cell :     372.0231

  direct lattice vectors                    reciprocal lattice vectors
     5.052600000  0.000000000  0.000000000     0.197917904  0.000000000  0.000000000
     0.000000000  5.052600000  0.000000000     0.000000000  0.197917904  0.000000000
     0.000000000  0.000000000 14.572700000     0.000000000  0.000000000  0.068621463

  length of vectors
     5.052600000  5.052600000 14.572700000     0.197917904  0.197917904  0.068621463

  position of ions in fractional coordinates (direct lattice)
     0.000000000  0.000000000  0.191200000
     0.250000000  0.250000000  0.068620000
     0.250000000  0.329167161  0.313790000
     0.250000000  0.000000000  0.129910000
     0.000000000  0.250000000  0.252500000
     0.000000000  0.500000000  0.191200000
     0.250000000  0.750000000  0.068620000
     0.250000000  0.670832839  0.313790000
     0.250000000  0.500000000  0.129910000
     0.000000000  0.750000000  0.252500000
     0.500000000  0.000000000  0.191200000
     0.750000000  0.250000000  0.068620000
     0.750000000  0.329167161  0.313790000
     0.750000000  0.000000000  0.129910000
     0.500000000  0.250000000  0.252500000
     0.500000000  0.500000000  0.191200000
     0.750000000  0.750000000  0.068620000
     0.750000000  0.670832839  0.313790000
     0.750000000  0.500000000  0.129910000
     0.500000000  0.750000000  0.252500000

  ion indices of the primitive-cell ions
   primitive index   ion index
                 1           1
                 2           2
                 3           3
                 4           4
                 5           5
                 6           6
                 7           7
                 8           8
                 9           9
                10          10
                11          11
                12          12
                13          13
                14          14
                15          15
                16          16
                17          17
                18          18
                19          19
                20          20

 KPOINTS: C fcc         # System label

Automatic generation of k-mesh.
 Grid dimensions read from file:
 generate k-points for:    2    2    1

 Generating k-lattice:

  Cartesian coordinates                     Fractional coordinates (reciprocal lattice)
     0.098958952  0.000000000  0.000000000     0.500000000  0.000000000  0.000000000
     0.000000000  0.098958952  0.000000000     0.000000000  0.500000000  0.000000000
     0.000000000  0.000000000  0.068621463     0.000000000  0.000000000  1.000000000

  Length of vectors
     0.098958952  0.098958952  0.068621463

  Shift w.r.t. Gamma in fractional coordinates (k-lattice)
     0.000000000  0.000000000  0.000000000

 Subroutine IBZKPT returns following result:

 Found      4 irreducible k-points:

 Following reciprocal coordinates:
            Coordinates               Weight
  0.000000  0.000000  0.000000      1.000000
  0.500000  0.000000  0.000000      1.000000
  0.000000  0.500000  0.000000      1.000000
  0.500000  0.500000  0.000000      1.000000

 Following cartesian coordinates:
            Coordinates               Weight
  0.000000  0.000000  0.000000      1.000000
  0.098959  0.000000  0.000000      1.000000
  0.000000  0.098959  0.000000      1.000000
  0.098959  0.098959  0.000000      1.000000

 Based on PREC, I would recommend the following setting:
   dimension x,y,z NGX =     2 NGY =    2 NGZ =    4

 SYSTEM =  fcc silicon
 POSCAR =   C

 Startparameter for this run:
   NWRITE =      2    write-flag & timer
   PREC   = normal    normal or accurate (medium, high low for compatibility)
   ISTART =      0    job   : 0-new  1-cont  2-samecut
   ICHARG =      2    charge: 1-file 2-atom 10-const
   ISPIN  =      1    spin polarized calculation?
   LNONCOLLINEAR =      F non collinear calculations
   LSORBIT =      F    spin-orbit coupling
   INIWAV =      1    electr: 0-lowe 1-rand  2-diag
   LASPH  =      F    aspherical Exc in radial PAW
 Electronic Relaxation 1
   ENCUT  =    1.0 eV   0.07 Ry    0.27 a.u.   0.41  0.41  1.19*2*pi/ulx,y,z
   ENINI  =    1.0     initial cutoff
   ENAUG  =  644.9 eV  augmentation charge cutoff
   NELM   =     60;   NELMIN=  2; NELMDL= -5     # of ELM steps
   EDIFF  = 0.1E-05   stopping-criterion for ELM
   LREAL  =      F    real-space projection
   NLSPLINE    = F    spline interpolate recip. space projectors
   LCOMPAT=      F    compatible to vasp.4.4
   GGA_COMPAT  = T    GGA compatible to vasp.4.4-vasp.4.6
   LMAXPAW     = -100 max onsite density
   LMAXMIX     =    2 max onsite mixed and CHGCAR
   VOSKOWN=      0    Vosko Wilk Nusair interpolation
   ROPT   =    0.00000
 Ionic relaxation
   EDIFFG = -.3E-01   stopping-criterion for IOM
   NSW    =    300    number of steps for IOM
   NBLOCK =      1;   KBLOCK =    300    inner block; outer block
   IBRION =      2    ionic relax: 0-MD 1-quasi-New 2-CG
   NFREE  =      1    steps in history (QN), initial steepest desc. (CG)
   ISIF   =      2    stress and relaxation
   IWAVPR =     11    prediction:  0-non 1-charg 2-wave 3-comb
   ISYM   =      0    0-nonsym 1-usesym 2-fastsym
   LCORR  =      T    Harris-Foulkes like correction to forces

   POTIM  = 0.5000    time-step for ionic-motion
   TEIN   =    0.0    initial temperature
   TEBEG  =    0.0;   TEEND  =   0.0 temperature during run
   SMASS  =  -3.00    Nose mass-parameter (am)
   estimated Nose-frequenzy (Omega)   =  0.10E-29 period in steps = 0.13E+47 mass=  -0.583E-27a.u.
   SCALEE = 1.0000    scale energy and forces
   NPACO  =    256;   APACO  = 10.0  distance and # of slots for P.C.
   PSTRESS=    0.0 pullay stress

  Mass of Ions in am
   POMASS =  12.01
  Ionic Valenz
   ZVAL   =   4.00
  Atomic Wigner-Seitz radii
  virtual crystal weights
   VCA    =   1.00
   NELECT =      80.0000    total number of electrons
   NUPDOWN=      -1.0000    fix difference up-down

 DOS related values:
   EMIN   =  10.00;   EMAX   =-10.00  energy-range for DOS
   EFERMI =   0.00;   METHOD = LEGACY
   ISMEAR =     1;   SIGMA  =   0.20  broadening in eV -4-tet -1-fermi 0-gaus

 Electronic relaxation 2 (details)
   IALGO  =     38    algorithm
   LDIAG  =      T    sub-space diagonalisation (order eigenvalues)
   LSUBROT=      F    optimize rotation matrix (better conditioning)
   TURBO    =      0    0=normal 1=particle mesh
   IRESTART =      0    0=no restart 2=restart with 2 vectors
   NREBOOT  =      0    no. of reboots
   NMIN     =      0    reboot dimension
   EREF     =   0.00    reference energy to select bands
   IMIX   =      4    mixing-type and parameters
     AMIX     =   0.40;   BMIX     =  1.00
     AMIX_MAG =   1.60;   BMIX_MAG =  1.00
     AMIN     =   0.10
     WC   =   100.;   INIMIX=   1;  MIXPRE=   1;  MAXMIX= -45

 Intra band minimization:
   WEIMIN = 0.0010     energy-eigenvalue tresh-hold
   EBREAK =  0.46E-08  absolut break condition
   DEPER  =   0.30     relativ break condition

   TIME   =   0.40     timestep for ELM

  volume/ion in A,a.u.               =      18.60       125.53
  Fermi-wavevector in a.u.,A,eV,Ry     =   0.980802  1.853448 13.088443  0.961973
  Thomas-Fermi vector in A             =   2.111761

 Write flags
   LWAVE        =      T    write WAVECAR
   LDOWNSAMPLE  =      F    k-point downsampling of WAVECAR
   LCHARG       =      T    write CHGCAR
   LVTOT        =      F    write LOCPOT, total local potential
   LVHAR        =      F    write LOCPOT, Hartree potential only
   LELF         =      F    write electronic localiz. function (ELF)
   LORBIT       =      0    0 simple, 1 ext, 2 COOP (PROOUT), +10 PAW based schemes

 Dipole corrections
   LMONO  =      F    monopole corrections only (constant potential shift)
   LDIPOL =      F    correct potential (dipole corrections)
   IDIPOL =      0    1-x, 2-y, 3-z, 4-all directions
   EPSILON=  1.0000000 bulk dielectric constant

 Exchange correlation treatment:
   GGA     =    --    GGA type
   VOSKOWN =     0    Vosko Wilk Nusair interpolation
   LHFCALC =     F    Hartree Fock is set to
   LHFONE  =     F    Hartree Fock one center treatment
   AEXX    =    0.0000 exact exchange contribution

 Linear response parameters
   LEPSILON=     F    determine dielectric tensor
   LRPA    =     F    only Hartree local field effects (RPA)
   LNABLA  =     F    use nabla operator in PAW spheres
   LVEL    =     F    velocity operator in full k-point grid
   CSHIFT  =0.1000    complex shift for real part using Kramers Kronig
   OMEGAMAX=  -1.0    maximum frequency
   DEG_THRESHOLD= 0.2000000E-02 threshold for treating states as degnerate
   RTIME   =   -0.100 relaxation time in fs
  (WPLASMAI=    0.000 imaginary part of plasma frequency in eV, 0.658/RTIME)
   DFIELD  = 0.0000000 0.0000000 0.0000000 field for delta impulse in time

  Optional k-point grid parameters
   LKPOINTS_OPT  =     F    use optional k-point grid
   KPOINTS_OPT_MODE=     1    mode for optional k-point grid

 Orbital magnetization related:
   ORBITALMAG=     F  switch on orbital magnetization
   LCHIMAG   =     F  perturbation theory with respect to B field
   DQ        =  0.001000  dq finite difference perturbation B field
   LLRAUG    =     F  two centre corrections for induced B field
   LBONE     =     F  B-component reconstruction in AE one-centre
   LVGVCALC  =     T  calculate vGv susceptibility
   LVGVAPPL  =     F  apply vGv susceptibility instead of pGv for G=0

 Random number generation:
   RANDOM_GENERATOR = DEFAULT
   PCG_SEED         = not used

 conjugate gradient relaxation of ions
   using selective dynamics as specified on POSCAR
   WARNING: If single coordinates had been selected the selection of coordinates
            is made according to the corresponding   d i r e c t   coordinates!
            Don't support selection of single cartesian coordinates -- sorry ... !
 charge density and potential will be updated during run
 non-spin polarized calculation
 Variant of blocked Davidson
 Davidson routine will perform the subspace rotation
 perform sub-space diagonalisation
    after iterative eigenvector-optimisation
 modified Broyden-mixing scheme, WC =      100.0
 initial mixing is a Kerker type mixing with AMIX =  0.4000 and BMIX =      1.0000
 Hartree-type preconditioning will be used
 using additional bands           14
 reciprocal scheme for non local part
 use partial core corrections
 calculate Harris-corrections to forces   (improved forces if not selfconsistent)
 use gradient corrections
 use of overlap-Matrix (Vanderbilt PP)
 Methfessel and Paxton  Order N= 1 SIGMA  =   0.20

  energy-cutoff  :        1.00
  volume of cell :      372.02
      direct lattice vectors                 reciprocal lattice vectors
     5.052600000  0.000000000  0.000000000     0.197917904  0.000000000  0.000000000
     0.000000000  5.052600000  0.000000000     0.000000000  0.197917904  0.000000000
     0.000000000  0.000000000 14.572700000     0.000000000  0.000000000  0.068621463

[...]

 k-points in units of 2pi/SCALE and weight: C fcc         # System label
   0.00000000  0.00000000  0.00000000       0.250
   0.09895895  0.00000000  0.00000000       0.250
   0.00000000  0.09895895  0.00000000       0.250
   0.09895895  0.09895895  0.00000000       0.250

 k-points in reciprocal lattice and weights: C fcc         # System label
   0.00000000  0.00000000  0.00000000       0.250
   0.50000000  0.00000000  0.00000000       0.250
   0.00000000  0.50000000  0.00000000       0.250
   0.50000000  0.50000000  0.00000000       0.250

 position of ions in fractional coordinates (direct lattice)
   0.00000000  0.00000000  0.19120000
   0.25000000  0.25000000  0.06862000
   0.25000000  0.32916716  0.31379000
   0.25000000  0.00000000  0.12991000
   0.00000000  0.25000000  0.25250000
   0.00000000  0.50000000  0.19120000
   0.25000000  0.75000000  0.06862000
   0.25000000  0.67083284  0.31379000
   0.25000000  0.50000000  0.12991000
   0.00000000  0.75000000  0.25250000
   0.50000000  0.00000000  0.19120000
   0.75000000  0.25000000  0.06862000
   0.75000000  0.32916716  0.31379000
   0.75000000  0.00000000  0.12991000
   0.50000000  0.25000000  0.25250000
   0.50000000  0.50000000  0.19120000
   0.75000000  0.75000000  0.06862000
   0.75000000  0.67083284  0.31379000
   0.75000000  0.50000000  0.12991000
   0.50000000  0.75000000  0.25250000

 position of ions in cartesian coordinates  (Angst):
   0.00000000  0.00000000  2.78630024
   1.26315000  1.26315000  0.99997867
   1.26315000  1.66315000  4.57276753
   1.26315000  0.00000000  1.89313946
   0.00000000  1.26315000  3.67960675
   0.00000000  2.52630000  2.78630024
   1.26315000  3.78945000  0.99997867
   1.26315000  3.38945000  4.57276753
   1.26315000  2.52630000  1.89313946
   0.00000000  3.78945000  3.67960675
   2.52630000  0.00000000  2.78630024
   3.78945000  1.26315000  0.99997867
   3.78945000  1.66315000  4.57276753
   3.78945000  0.00000000  1.89313946
   2.52630000  1.26315000  3.67960675
   2.52630000  2.52630000  2.78630024
   3.78945000  3.78945000  0.99997867
   3.78945000  3.38945000  4.57276753
   3.78945000  2.52630000  1.89313946
   2.52630000  3.78945000  3.67960675

 k-point   1 :   0.0000 0.0000 0.0000  plane waves:       2
 k-point   2 :   0.5000 0.0000 0.0000  plane waves:       0
 k-point   3 :   0.0000 0.5000 0.0000  plane waves:       0
 k-point   4 :   0.5000 0.5000 0.0000  plane waves:       0

 maximum and minimum number of plane-waves per node :         2        0

 maximum number of plane-waves:         2
 maximum index in each direction:
   IXMAX=    0   IYMAX=    0   IZMAX=    1
   IXMIN=    0   IYMIN=    0   IZMIN=    0

--------------------------------------- Ionic step        1  -------------------------------------------

  ML FORCE on cell =-STRESS in cart. coord. units (eV/cell)
  Direction    XX          YY          ZZ          XY          YZ          ZX
  Total:    -33.34815   -87.46697   -47.70348    -0.00000     0.00000    -0.00000
  in kB    -143.61919  -376.69063  -205.44272    -0.00000     0.00000    -0.00000

  Total+kin.  -143.619    -376.691    -205.443      -0.000       0.000      -0.000
  volume of cell :      372.02
      direct lattice vectors                 reciprocal lattice vectors
     5.052600000  0.000000000  0.000000000     0.197917904  0.000000000  0.000000000
     0.000000000  5.052600000  0.000000000     0.000000000  0.197917904  0.000000000
     0.000000000  0.000000000 14.572700000     0.000000000  0.000000000  0.068621463

[...]

  POSITION                                       TOTAL-FORCE (eV/Angst) (ML)
      0.00000      0.00000      2.78630        -0.000000     -0.000000      2.715276
      1.26315      1.26315      0.99998        -0.000000     -0.338956      0.759021
      1.26315      1.66315      4.57277        -0.000000     -0.791060     -4.427059
      1.26315      0.00000      1.89314        -0.000000     -0.000000      1.877521
      0.00000      1.26315      3.67961         0.000000      6.942917      0.001770
      0.00000      2.52630      2.78630         0.000000     -0.000000     -1.345384
      1.26315      3.78945      0.99998        -0.000000      0.338956      0.759021
      1.26315      3.38945      4.57277        -0.000000      0.791060     -4.427059
      1.26315      2.52630      1.89314        -0.000000     -0.000000      4.085121
      0.00000      3.78945      3.67961         0.000000     -6.942917      0.001770
      2.52630      0.00000      2.78630         0.000000     -0.000000      2.715276
      3.78945      1.26315      0.99998        -0.000000     -0.338956      0.759021
      3.78945      1.66315      4.57277         0.000000     -0.791060     -4.427059
      3.78945      0.00000      1.89314         0.000000      0.000000      1.877521
      2.52630      1.26315      3.67961        -0.000000      6.942917      0.001770
      2.52630      2.52630      2.78630        -0.000000      0.000000     -1.345384
      3.78945      3.78945      0.99998         0.000000      0.338956      0.759021
      3.78945      3.38945      4.57277         0.000000      0.791060     -4.427059
      3.78945      2.52630      1.89314         0.000000     -0.000000      4.085121
      2.52630      3.78945      3.67961        -0.000000     -6.942917      0.001770
    total drift:                                0.000000      0.000000      0.000000

  ML FREE ENERGIE OF THE ION-ELECTRON SYSTEM (eV)
  free  energy ML TOTEN  =      -142.87665503 eV

  ML energy  without entropy=     -142.87665503  ML energy(sigma->0) =     -142.87665503

[...]

 Steepest descent step on ions:
 trial-energy change:    0.317367  1 .order   -4.368870  -16.041022    7.303282
  (g-gl).g = 0.160E+02      g.g   = 0.160E+02  gl.gl    = 0.000E+00
 g(Force)  = 0.160E+02   g(Stress)= 0.000E+00 ortho     = 0.000E+00
 gamma     =   0.00000
 trial     =   1.00000
 opt step  =   0.39845  (harmonic =   0.68715) maximal distance =0.13345973
 next E    =  -145.775999   (d E  =  -2.89934)

[...]

 Conjugate gradient step on ions:
 trial-energy change:   -0.916678  1 .order   -0.841546   -3.901954    2.218862
  (g-gl).g = 0.408E+01      g.g   = 0.436E+01  gl.gl    = 0.160E+02
 g(Force)  = 0.436E+01   g(Stress)= 0.000E+00 ortho     = 0.283E+00
 gamma     =   0.25436
 trial     =   0.87969
 opt step  =   0.57545  (harmonic =   0.56079) maximal distance =0.06997364
 next E    =  -147.377037   (d E  =  -1.29727)

[...]

 Conjugate gradient step on ions:
 trial-energy change:   -0.868375  1 .order   -0.758050   -1.722331    0.206232
  (g-gl).g = 0.563E+01      g.g   = 0.567E+01  gl.gl    = 0.436E+01
 g(Force)  = 0.567E+01   g(Stress)= 0.000E+00 ortho     =-0.487E-01
 gamma     =   1.29092
 trial     =   0.30708
 opt step  =   0.28212  (harmonic =   0.27424) maximal distance =0.08287461
 next E    =  -148.269543   (d E  =  -0.87670)

[...]

 Conjugate gradient step on ions:
 trial-energy change:   -0.189377  1 .order   -0.188262   -0.421582    0.045059
  (g-gl).g =-0.486E+00      g.g   = 0.139E+01  gl.gl    = 0.567E+01
 g(Force)  = 0.139E+01   g(Stress)= 0.000E+00 ortho     =-0.104E-01
 gamma     =  -0.08563
 trial     =   0.30209
 opt step  =   0.27329  (harmonic =   0.27292) maximal distance =0.02077066
 next E    =  -148.461210   (d E  =  -0.19152)

[...]

 Conjugate gradient step on ions:
 trial-energy change:   -0.001481  1 .order   -0.001482   -0.002051   -0.000913
  (g-gl).g =-0.364E-03      g.g   = 0.631E-02  gl.gl    = 0.215E+00
 g(Force)  = 0.631E-02   g(Stress)= 0.000E+00 ortho     = 0.289E-04
 gamma     =  -0.00169
 trial     =   0.32493
 opt step  =   0.58563  (harmonic =   0.58563) maximal distance =0.00637353
 next E    =  -148.868822   (d E  =  -0.00185)

[...]

 Conjugate gradient step on ions:
 trial-energy change:   -0.000522  1 .order   -0.000523   -0.001089    0.000042
  (g-gl).g = 0.284E-02      g.g   = 0.287E-02  gl.gl    = 0.631E-02
 g(Force)  = 0.287E-02   g(Stress)= 0.000E+00 ortho     = 0.308E-04
 gamma     =   0.45012
 trial     =   0.37707
 opt step  =   0.36311  (harmonic =   0.36311) maximal distance =0.00331774
 next E    =  -148.869349   (d E  =  -0.00052)

[...]

--------------------------------------- Ionic step       24  -------------------------------------------

  ML FORCE on cell =-STRESS in cart. coord. units (eV/cell)
  Direction    XX          YY          ZZ          XY          YZ          ZX
  Total:    -37.42107   -19.38439     0.25721     0.00000     0.00000     0.00000
  in kB    -161.15987   -83.48202     1.10772     0.00000     0.00000     0.00000

  Total+kin.  -161.160     -83.482       1.108       0.000       0.000       0.000
  volume of cell :      372.02
      direct lattice vectors                 reciprocal lattice vectors
     5.052600000  0.000000000  0.000000000     0.197917904  0.000000000  0.000000000
     0.000000000  5.052600000  0.000000000     0.000000000  0.197917904  0.000000000
     0.000000000  0.000000000 14.572700000     0.000000000  0.000000000  0.068621463

  length of vectors
     5.052600000  5.052600000 14.572700000     0.197917904  0.197917904  0.068621463

  POSITION                                       TOTAL-FORCE (eV/Angst) (ML)
     -0.00000      0.00000      2.78577         0.000000     -0.000000      0.020193
      1.26315      1.26315      0.99998         0.000000     -1.498839     -0.025696
      1.26315      1.79540      4.20468         0.000000      0.005509      0.012263
      1.26315      0.00000      1.92092         0.000000     -0.000000     -0.002074
      0.00000      1.40601      3.50894         0.000000     -0.012847      0.002606
      0.00000      2.52630      2.67701        -0.000000      0.000000     -0.000481
      1.26315      3.78945      0.99998         0.000000      1.498839     -0.025696
      1.26315      3.25720      4.20468        -0.000000     -0.005509      0.012263
      1.26315      2.52630      1.89301         0.000000      0.000000      0.004014
      0.00000      3.64659      3.50894        -0.000000      0.012847      0.002606
      2.52630     -0.00000      2.78577        -0.000000     -0.000000      0.020193
      3.78945      1.26315      0.99998        -0.000000     -1.498839     -0.025696
      3.78945      1.79540      4.20468        -0.000000      0.005509      0.012263
      3.78945      0.00000      1.92092        -0.000000     -0.000000     -0.002074
      2.52630      1.40601      3.50894        -0.000000     -0.012847      0.002606
      2.52630      2.52630      2.67701         0.000000      0.000000     -0.000481
      3.78945      3.78945      0.99998         0.000000      1.498839     -0.025696
      3.78945      3.25720      4.20468         0.000000     -0.005509      0.012263
      3.78945      2.52630      1.89301        -0.000000      0.000000      0.004014
      2.52630      3.64659      3.50894        -0.000000      0.012847      0.002606
    total drift:                               -0.000000      0.000000      0.000000

  ML FREE ENERGIE OF THE ION-ELECTRON SYSTEM (eV)
  free  energy ML TOTEN  =      -148.86947593 eV

  ML energy  without entropy=     -148.86947593  ML energy(sigma->0) =     -148.86947593

 Conjugate gradient step on ions:
 trial-energy change:   -0.000128  1 .order   -0.000128   -0.000251   -0.000006
  (g-gl).g = 0.696E-03      g.g   = 0.671E-03  gl.gl    = 0.287E-02
 g(Force)  = 0.671E-03   g(Stress)= 0.000E+00 ortho     =-0.579E-06
 gamma     =   0.24223
 trial     =   0.37428
 opt step  =   0.38313  (harmonic =   0.38313) maximal distance =0.00098488
 next E    =  -148.869476   (d E  =  -0.00013)

 reached required accuracy - stopping structural energy minimisation